
List of user-set options:

                                    Name   Value                used
                        file_print_level = 5                     yes
                   hessian_approximation = limited-memory        yes
                           linear_solver = mumps                 yes
                                max_iter = 400                   yes
                      nlp_scaling_method = user-scaling          yes
                             output_file = /Users/marcello/Documents/zhaw/BAZL/DRACONIAN/Dymos/terrain_traj_v0_out/IPOPT.out  yes
                             print_level = 5                     yes
                      print_user_options = yes                   yes
                                      sb = yes                   yes
This is Ipopt version 3.14.19, running with linear solver MUMPS 5.8.2.

Number of nonzeros in equality constraint Jacobian...:    17364
Number of nonzeros in inequality constraint Jacobian.:     8010
Number of nonzeros in Lagrangian Hessian.............:        0

Total number of variables............................:      178
                     variables with only lower bounds:        0
                variables with lower and upper bounds:       94
                     variables with only upper bounds:        0
Total number of equality constraints.................:      132
Total number of inequality constraints...............:       45
        inequality constraints with only lower bounds:       45
   inequality constraints with lower and upper bounds:        0
        inequality constraints with only upper bounds:        0

iter    objective    inf_pr   inf_du lg(mu)  ||d||  lg(rg) alpha_du alpha_pr  ls
   0  5.0000000e+00 5.00e+00 1.06e+00   0.0 0.00e+00    -  0.00e+00 0.00e+00   0
   1  5.4279065e+00 2.45e-01 1.30e+01   0.1 4.28e+00    -  3.05e-01 1.00e+00f  1
   2  5.4143274e+00 7.00e-04 3.11e-01  -1.4 1.85e-01    -  9.15e-01 1.00e+00h  1
   3  5.3213081e+00 2.65e-04 9.66e-02  -2.6 9.30e-01    -  9.77e-01 1.00e+00h  1
   4  1.5221308e-01 7.13e-01 8.05e-02  -2.6 5.37e+02    -  1.39e-01 9.62e-02f  1
   5  2.7377946e+00 4.09e-01 2.03e-01  -8.2 2.59e+01    -  1.96e-02 1.00e+00h  1
   6  3.0739480e+00 1.58e-01 3.90e-02  -2.2 8.62e+00    -  5.00e-01 1.00e+00h  1
   7  2.7955671e+00 1.34e-02 2.48e-02  -4.1 4.54e+00    -  6.35e-01 1.00e+00h  1
   8  2.5901085e+00 4.35e-02 1.39e-02  -2.4 2.80e+01    -  1.00e+00 5.96e-01h  1
   9  2.5454351e+00 3.17e-03 6.85e-04  -3.3 1.61e+00    -  9.72e-01 1.00e+00h  1
iter    objective    inf_pr   inf_du lg(mu)  ||d||  lg(rg) alpha_du alpha_pr  ls
  10  2.5152180e+00 1.47e-03 3.88e-04  -3.4 2.42e+00    -  1.00e+00 1.00e+00h  1
  11  2.5017226e+00 2.41e-04 1.21e-03  -4.5 1.02e+00    -  8.69e-01 1.00e+00h  1
  12  2.4993671e+00 8.53e-06 2.51e-05  -5.7 1.67e-01    -  9.99e-01 1.00e+00h  1
  13  2.4992663e+00 1.38e-08 1.69e-06  -7.8 8.56e-03    -  1.00e+00 1.00e+00h  1
  14  2.4992655e+00 9.18e-13 2.25e-09 -11.0 1.25e-04    -  1.00e+00 1.00e+00h  1

Number of Iterations....: 14

                                   (scaled)                 (unscaled)
Objective...............:   2.4992654519165978e+00    2.4992654519165978e+00
Dual infeasibility......:   2.2548287520961941e-09    2.2548287520961941e-09
Constraint violation....:   9.1829163209817603e-13    9.1829163209817603e-13
Variable bound violation:   9.7731882586771235e-09    9.7731882586771235e-09
Complementarity.........:   1.0963683508168834e-11    1.0963683508168834e-11
Overall NLP error.......:   2.2548287520961941e-09    2.2548287520961941e-09


Number of objective function evaluations             = 15
Number of objective gradient evaluations             = 15
Number of equality constraint evaluations            = 15
Number of inequality constraint evaluations          = 15
Number of equality constraint Jacobian evaluations   = 15
Number of inequality constraint Jacobian evaluations = 15
Number of Lagrangian Hessian evaluations             = 0
Total seconds in IPOPT                               = 1.648

EXIT: Optimal Solution Found.
